40 390 
1 4 1
1 5 1
1 7 1
1 8 1
1 9 1
1 10 1
1 16 1
1 17 1
1 19 1
1 20 1
1 21 1
1 22 1
1 23 1
1 24 1
1 27 1
1 29 1
1 30 1
1 38 1
1 39 1
1 40 1
2 11 1
2 13 1
2 14 1
2 16 1
2 17 1
2 18 1
2 19 1
2 20 1
2 21 1
2 22 1
2 23 1
2 24 1
2 27 1
2 30 1
2 31 1
2 34 1
2 36 1
2 38 1
2 39 1
3 4 1
3 7 1
3 11 1
3 12 1
3 16 1
3 18 1
3 19 1
3 22 1
3 24 1
3 27 1
3 29 1
3 30 1
3 32 1
3 34 1
3 36 1
3 37 1
3 39 1
3 40 1
4 6 1
4 9 1
4 10 1
4 12 1
4 16 1
4 22 1
4 24 1
4 27 1
4 28 1
4 30 1
4 32 1
4 36 1
4 37 1
4 39 1
5 6 1
5 8 1
5 15 1
5 17 1
5 26 1
5 27 1
5 29 1
5 37 1
5 39 1
5 40 1
6 7 1
6 8 1
6 9 1
6 10 1
6 14 1
6 16 1
6 17 1
6 24 1
6 27 1
6 28 1
6 33 1
6 39 1
6 40 1
7 8 1
7 9 1
7 10 1
7 12 1
7 13 1
7 16 1
7 17 1
7 19 1
7 22 1
7 23 1
7 24 1
7 25 1
7 26 1
7 27 1
7 32 1
7 33 1
7 34 1
7 36 1
7 38 1
7 39 1
8 10 1
8 11 1
8 12 1
8 14 1
8 16 1
8 17 1
8 21 1
8 23 1
8 25 1
8 26 1
8 28 1
8 29 1
8 33 1
8 34 1
8 36 1
8 37 1
8 40 1
9 10 1
9 15 1
9 16 1
9 19 1
9 20 1
9 21 1
9 22 1
9 24 1
9 25 1
9 26 1
9 28 1
9 30 1
9 31 1
9 33 1
9 34 1
9 35 1
9 39 1
9 40 1
10 11 1
10 13 1
10 19 1
10 22 1
10 23 1
10 29 1
10 31 1
10 33 1
10 34 1
10 35 1
10 38 1
11 12 1
11 13 1
11 15 1
11 17 1
11 18 1
11 19 1
11 21 1
11 24 1
11 26 1
11 27 1
11 29 1
11 31 1
11 32 1
11 34 1
11 36 1
11 37 1
11 38 1
11 40 1
12 13 1
12 16 1
12 20 1
12 21 1
12 22 1
12 24 1
12 25 1
12 26 1
12 28 1
12 29 1
12 30 1
12 31 1
12 33 1
12 34 1
12 37 1
12 38 1
12 39 1
13 14 1
13 18 1
13 19 1
13 20 1
13 22 1
13 23 1
13 24 1
13 25 1
13 26 1
13 27 1
13 30 1
13 31 1
13 32 1
13 35 1
13 36 1
13 37 1
14 15 1
14 16 1
14 18 1
14 20 1
14 21 1
14 22 1
14 24 1
14 25 1
14 26 1
14 28 1
14 30 1
14 32 1
14 33 1
14 34 1
14 35 1
14 38 1
14 40 1
15 16 1
15 21 1
15 22 1
15 23 1
15 28 1
15 30 1
15 37 1
15 39 1
16 22 1
16 23 1
16 25 1
16 27 1
16 28 1
16 33 1
16 34 1
16 35 1
16 40 1
17 19 1
17 20 1
17 27 1
17 28 1
17 30 1
17 32 1
17 33 1
17 37 1
17 39 1
18 20 1
18 21 1
18 22 1
18 23 1
18 24 1
18 27 1
18 28 1
18 29 1
18 32 1
18 36 1
18 38 1
18 39 1
19 20 1
19 21 1
19 23 1
19 25 1
19 27 1
19 30 1
19 31 1
19 33 1
19 34 1
19 35 1
19 38 1
19 39 1
19 40 1
20 23 1
20 24 1
20 25 1
20 26 1
20 27 1
20 29 1
20 32 1
20 38 1
20 39 1
20 40 1
21 22 1
21 23 1
21 25 1
21 26 1
21 28 1
21 30 1
21 31 1
21 33 1
21 35 1
21 36 1
21 37 1
22 24 1
22 25 1
22 27 1
22 28 1
22 29 1
22 30 1
22 32 1
22 33 1
22 37 1
22 38 1
22 39 1
22 40 1
23 26 1
23 28 1
23 29 1
23 31 1
23 34 1
23 35 1
23 37 1
23 38 1
23 39 1
24 25 1
24 30 1
24 31 1
24 32 1
24 34 1
24 36 1
25 29 1
25 30 1
25 31 1
25 36 1
25 38 1
25 39 1
26 28 1
26 31 1
26 32 1
26 33 1
26 39 1
27 28 1
27 30 1
27 31 1
27 33 1
27 36 1
27 40 1
28 29 1
28 30 1
28 31 1
28 33 1
28 34 1
28 35 1
28 36 1
28 37 1
28 40 1
29 30 1
29 31 1
29 32 1
29 33 1
29 34 1
29 35 1
29 37 1
29 38 1
30 32 1
30 38 1
31 32 1
31 33 1
31 35 1
31 38 1
31 39 1
31 40 1
32 33 1
32 34 1
32 35 1
32 37 1
32 38 1
32 39 1
33 37 1
33 39 1
33 40 1
34 35 1
34 37 1
34 39 1
34 40 1
35 40 1
36 39 1
36 40 1
37 39 1
37 40 1
38 39 1
38 40 1
39 40 1
